




























































































88 66 32 44 78 37 
43 75 1 60 71 
99 29 11 105 48 
50 23 91 109 46 
55 54 98 89 45 56 
57 27 63 34 7 
76 59 4 33 79 
9 112 40 87 86 
41 93 47 22 67 
84 39 73 64 70 
12 26 42 113 96 10 
51 61 17 74 90 38 
53 24 58 2 95 
101 16 94 65 49 
83 69 14 103 85 
13 30 62 6 106 
102 68 110 97 19 0 
107 5 108 31 82 
36 8 20 72 3 
81 15 52 100 92 28 
18 21 80 104 
35 77 25 114 111 
